NAME: instance_1437
TYPE: TSP
DIMENSION: 20
EDGE_WEIGHT_TYPE: EUC_2D
NODE_COORD_SECTION
0 63.73 72.91
1 90.86 92.54
2 70.23 32.38
3 58.36 34.12
4 77.03 11.45
5 24.66 55.80
6 84.32 33.46
7 50.30 9.07
8 74.56 33.66
9 62.48 27.51
10 13.94 9.37
11 31.34 86.42
12 73.23 93.73
13 61.70 3.61
14 18.39 36.53
15 95.33 6.23
16 39.85 73.84
17 26.23 35.20
18 68.00 40.65
19 81.88 20.51
EOF
